
Gurobi 10.0.1 (linux64) logging started Sun Nov 26 15:37:21 2023

Set parameter LogFile to value "ArtificialInstance/ExperimentV2/S2T3K1/BaRo/gurobi1.txt"
Gurobi Optimizer version 10.0.1 build v10.0.1rc0 (linux64)

CPU model: AMD EPYC 7H12 64-Core Processor, instruction set [SSE2|AVX|AVX2]
Thread count: 128 physical cores, 128 logical processors, using up to 32 threads

Academic license 656792 - for non-commercial use only - registered to b.___@student.vu.nl
Optimize a model with 792 rows, 1201 columns and 4002 nonzeros
Model fingerprint: 0xd141f1dd
Variable types: 1 continuous, 1200 integer (1200 binary)
Coefficient statistics:
  Matrix range     [1e+00, 4e+01]
  Objective range  [1e+00, 2e+01]
  Bounds range     [1e+00, 1e+00]
  RHS range        [1e+00, 1e+00]
Found heuristic solution: objective 379.1152581
Presolve time: 0.01s
Presolved: 792 rows, 1201 columns, 4002 nonzeros
Variable types: 1 continuous, 1200 integer (1200 binary)

Root relaxation: objective 2.949258e+01, 415 iterations, 0.01 seconds (0.00 work units)

    Nodes    |    Current Node    |     Objective Bounds      |     Work
 Expl Unexpl |  Obj  Depth IntInf | Incumbent    BestBd   Gap | It/Node Time

     0     0   29.49258    0   48  379.11526   29.49258  92.2%     -    0s
H    0     0                      33.2092890   29.49258  11.2%     -    0s
     0     0   33.14203    0   30   33.20929   33.14203  0.20%     -    0s
     0     0   33.14203    0   13   33.20929   33.14203  0.20%     -    0s

Explored 1 nodes (703 simplex iterations) in 0.10 seconds (0.02 work units)
Thread count was 32 (of 128 available processors)

Solution count 2: 33.2093 379.115 

Optimal solution found (tolerance 1.00e-04)
Best objective 3.320928903972e+01, best bound 3.320928903972e+01, gap 0.0000%
